p ds 20 5
1 2
1 13
2 5
2 6
2 8
2 11
3 10
3 11
3 12
3 14
4 8
4 12
5 6
5 9
5 15
5 18
6 10
6 17
6 18
6 19
7 10
7 11
7 14
7 17
7 20
8 10
8 13
8 14
8 15
8 17
8 19
9 10
9 11
9 17
9 20
10 17
10 18
10 20
11 12
11 13
11 14
11 15
11 18
11 20
12 13
12 15
12 16
12 17
12 18
12 19
13 16
15 16
15 17
15 18
18 19
